
  20    0


   0  10 2 3 4 5 6 7 16 17 18 19 
   3   5 15 11 10 9 8 
   1   2 10 9 
   3   2 14 13 
  10   2 10 8 
   4   2 12 11 
   8   2 9 8 
   7   1 20
   9   1 20
   1   1 20
   9   1 20
   5   1 20
   1   1 20
   3   1 20
   4   1 20
   9   1 20
  10   1 20
   8   1 20
   6   1 20
   0   0 
